NAME lp_typeD_864
OBJSENSE MAX
ROWS
 N  OBJ
 L  c0      
 L  c1      
 G  c2      
 G  c3      
 L  c_key_upper
 G  c_key_lower
 G  _chain_constr_1
 G  _chain_constr_2
 G  _chain_constr_3
 G  _chain_constr_4
 G  _chain_constr_5
 G  _chain_cycle
COLUMNS
    x0        OBJ       9.2028142917001932e-01
    x0        c0        1.2399538672855859e+00
    x0        c1        1.2917427685947009e+00
    x0        c2        1.2140614522725353e+00
    x0        c3        8.6529622803949469e-01
    x0        c_key_upper  1.2422336447318623e+00
    x0        c_key_lower  1.2422336447318623e+00
    x1        OBJ       1.0234953620056582e+00
    x1        c0        1.5303362700302330e+00
    x1        c1        1.9819588473212486e+00
    x1        c2        5.3498323771072442e-01
    x1        c3        9.0795313745251938e-01
    x1        c_key_upper  1.7996945024106767e+00
    x1        c_key_lower  1.7996945024106767e+00
    x2        OBJ       1.0361133067478492e+00
    x2        c0        7.7699020591410417e-01
    x2        c1        5.4183940729167124e-01
    x2        c2        1.1010598782315297e+00
    x2        c3        1.7566319288454042e+00
    x2        c_key_upper  1.5419494199839092e+00
    x2        c_key_lower  1.5419494199839092e+00
    x3        OBJ       7.0322433513508154e-01
    x3        c0        8.7519819190559267e-01
    x3        c1        1.5770341114320037e+00
    x3        c2        6.4323187591276065e-01
    x3        c3        5.4886945960275446e-01
    x3        c_key_upper  1.4440513935906332e+00
    x3        c_key_lower  1.4440513935906332e+00
    x4        OBJ       1.0298480742779641e+00
    x4        c0        6.1031034553452068e-01
    x4        c1        1.2563126147775370e+00
    x4        c2        1.0189062480691651e+00
    x4        c3        1.3574113929991953e+00
    x4        c_key_upper  1.8149840772894708e+00
    x4        c_key_lower  1.8149840772894708e+00
    x5        OBJ       1.1733103772715543e+00
    x5        c0        1.6168587769831864e+00
    x5        c1        1.0446246491313667e+00
    x5        c2        6.7990290200619841e-01
    x5        c3        1.0511658172984131e+00
    x5        c_key_upper  1.1184933094125582e+00
    x5        c_key_lower  1.1184933094125582e+00
    x6        OBJ       0.665185599247615
    x6        c0        6.6326837429878649e-01
    x6        c1        1.8399599861152103e+00
    x6        c2        1.6514110076258877e+00
    x6        c3        1.5011877670196694e+00
    x6        c_key_upper  1.5784269438180354e+00
    x6        c_key_lower  1.5784269438180354e+00
    x7        OBJ       1.2803423864439529e+00
    x7        c0        1.0565845517995327e+00
    x7        c1        6.5673013551851422e-01
    x7        c2        6.9842523462370765e-01
    x7        c3        1.0219974982705209e+00
    x7        c_key_upper  1.5112930800413156e+00
    x7        c_key_lower  1.5112930800413156e+00
    x8        OBJ       8.0954747038429975e-01
    x8        c0        5.0662263294539578e-01
    x8        c1        1.2708471556235021e+00
    x8        c2        1.9902375519812181e+00
    x8        c3        5.5084342576958645e-01
    x8        c_key_upper  1.0474596102213094e+00
    x8        c_key_lower  1.0474596102213094e+00
    _chain_var_0  _chain_constr_1  -1
    _chain_var_0  _chain_cycle  1
    _chain_var_1  _chain_constr_1  1
    _chain_var_1  _chain_constr_2  -1
    _chain_var_2  _chain_constr_2  1
    _chain_var_2  _chain_constr_3  -1
    _chain_var_3  _chain_constr_3  1
    _chain_var_3  _chain_constr_4  -1
    _chain_var_4  _chain_constr_4  1
    _chain_var_4  _chain_constr_5  -1
    _chain_var_5  _chain_constr_5  1
    _chain_var_5  _chain_cycle  -1
RHS
    RHS1      c0        5.1046241780201917e+01
    RHS1      c1        6.2653030966770025e+01
    RHS1      c2        1.6548483919707742e+01
    RHS1      c3        1.1903446909535491e+01
    RHS1      c_key_upper  6.5492929907498862e+01
    RHS1      c_key_lower  3.2746464953749431e+01
    RHS1      _chain_constr_1  10
    RHS1      _chain_constr_2  10
    RHS1      _chain_constr_3  10
    RHS1      _chain_constr_4  10
    RHS1      _chain_constr_5  10
    RHS1      _chain_cycle  10
BOUNDS
 UP BND1      x0        10
 UP BND1      x1        10
 UP BND1      x2        10
 UP BND1      x3        10
 UP BND1      x4        10
 UP BND1      x5        10
 UP BND1      x6        10
 UP BND1      x7        10
 UP BND1      x8        10
 UP BND1      _chain_var_0  100
 UP BND1      _chain_var_1  100
 UP BND1      _chain_var_2  100
 UP BND1      _chain_var_3  100
 UP BND1      _chain_var_4  100
 UP BND1      _chain_var_5  100
ENDATA
